c This file is generated by v2cnfMtr
c Generated on Mon Nov  9 17:05:04 2015
p cnf 175 428
-1 -3 -21 0
1 21 0
3 21 0
-3 -4 -18 0
3 18 0
4 18 0
-2 -37 -20 0
2 20 0
37 20 0
-5 -37 -19 0
5 19 0
37 19 0
-24 -63 -16 0
24 16 0
63 16 0
-76 -76 -17 0
76 17 0
76 17 0
6 22 0
-6 -22 0
7 23 0
-7 -23 0
-1 -22 25 0
1 -25 0
22 -25 0
-21 -6 26 0
21 -26 0
6 -26 0
-4 -22 27 0
4 -27 0
22 -27 0
-21 -6 28 0
21 -28 0
6 -28 0
-25 -23 29 0
25 -29 0
23 -29 0
-26 -7 30 0
26 -30 0
7 -30 0
-27 -23 31 0
27 -31 0
23 -31 0
-28 -7 32 0
28 -32 0
7 -32 0
29 30 -33 0
-29 33 0
-30 33 0
31 33 -34 0
-31 34 0
-33 34 0
34 32 -24 0
-34 24 0
-32 24 0
8 35 0
-8 -35 0
9 36 0
-9 -36 0
-1 -35 38 0
1 -38 0
35 -38 0
-18 -8 39 0
18 -39 0
8 -39 0
-4 -35 40 0
4 -40 0
35 -40 0
-18 -8 41 0
18 -41 0
8 -41 0
-38 -36 42 0
38 -42 0
36 -42 0
-39 -9 43 0
39 -43 0
9 -43 0
-40 -36 44 0
40 -44 0
36 -44 0
-41 -9 45 0
41 -45 0
9 -45 0
42 43 -46 0
-42 46 0
-43 46 0
44 46 -47 0
-44 47 0
-46 47 0
47 45 -37 0
-47 37 0
-45 37 0
10 48 0
-10 -48 0
11 49 0
-11 -49 0
-1 -48 51 0
1 -51 0
48 -51 0
-18 -10 52 0
18 -52 0
10 -52 0
-4 -48 53 0
4 -53 0
48 -53 0
-18 -10 54 0
18 -54 0
10 -54 0
-51 -49 55 0
51 -55 0
49 -55 0
-52 -11 56 0
52 -56 0
11 -56 0
-53 -49 57 0
53 -57 0
49 -57 0
-54 -11 58 0
54 -58 0
11 -58 0
55 56 -59 0
-55 59 0
-56 59 0
57 59 -60 0
-57 60 0
-59 60 0
60 58 -50 0
-60 50 0
-58 50 0
12 61 0
-12 -61 0
13 62 0
-13 -62 0
-1 -61 64 0
1 -64 0
61 -64 0
-20 -12 65 0
20 -65 0
12 -65 0
-4 -61 66 0
4 -66 0
61 -66 0
-20 -12 67 0
20 -67 0
12 -67 0
-64 -62 68 0
64 -68 0
62 -68 0
-65 -13 69 0
65 -69 0
13 -69 0
-66 -62 70 0
66 -70 0
62 -70 0
-67 -13 71 0
67 -71 0
13 -71 0
68 69 -72 0
-68 72 0
-69 72 0
70 72 -73 0
-70 73 0
-72 73 0
73 71 -63 0
-73 63 0
-71 63 0
14 74 0
-14 -74 0
15 75 0
-15 -75 0
-1 -74 77 0
1 -77 0
74 -77 0
-19 -14 78 0
19 -78 0
14 -78 0
-4 -74 79 0
4 -79 0
74 -79 0
-19 -14 80 0
19 -80 0
14 -80 0
-77 -75 81 0
77 -81 0
75 -81 0
-78 -15 82 0
78 -82 0
15 -82 0
-79 -75 83 0
79 -83 0
75 -83 0
-80 -15 84 0
80 -84 0
15 -84 0
81 82 -85 0
-81 85 0
-82 85 0
83 85 -86 0
-83 86 0
-85 86 0
86 84 -76 0
-86 76 0
-84 76 0
c The second circuit:
-87 -89 -107 0
87 107 0
89 107 0
-89 -90 -104 0
89 104 0
90 104 0
-88 -123 -106 0
88 106 0
123 106 0
-91 -123 -105 0
91 105 0
123 105 0
-110 -149 -102 0
110 102 0
149 102 0
-162 -162 -103 0
162 103 0
162 103 0
92 108 0
-92 -108 0
93 109 0
-93 -109 0
-87 -108 111 0
87 -111 0
108 -111 0
-107 -92 112 0
107 -112 0
92 -112 0
-90 -108 113 0
90 -113 0
108 -113 0
-107 -92 114 0
107 -114 0
92 -114 0
-111 -109 115 0
111 -115 0
109 -115 0
-112 -93 116 0
112 -116 0
93 -116 0
-113 -109 117 0
113 -117 0
109 -117 0
-114 -93 118 0
114 -118 0
93 -118 0
115 116 -119 0
-115 119 0
-116 119 0
117 119 -120 0
-117 120 0
-119 120 0
120 118 -110 0
-120 110 0
-118 110 0
94 121 0
-94 -121 0
95 122 0
-95 -122 0
-87 -121 124 0
87 -124 0
121 -124 0
-104 -94 125 0
104 -125 0
94 -125 0
-90 -121 126 0
90 -126 0
121 -126 0
-104 -94 127 0
104 -127 0
94 -127 0
-124 -122 128 0
124 -128 0
122 -128 0
-125 -95 129 0
125 -129 0
95 -129 0
-126 -122 130 0
126 -130 0
122 -130 0
-127 -95 131 0
127 -131 0
95 -131 0
128 129 -132 0
-128 132 0
-129 132 0
130 132 -133 0
-130 133 0
-132 133 0
133 131 -123 0
-133 123 0
-131 123 0
96 134 0
-96 -134 0
97 135 0
-97 -135 0
-87 -134 137 0
87 -137 0
134 -137 0
-104 -96 138 0
104 -138 0
96 -138 0
-90 -134 139 0
90 -139 0
134 -139 0
-104 -96 140 0
104 -140 0
96 -140 0
-137 -135 141 0
137 -141 0
135 -141 0
-138 -97 142 0
138 -142 0
97 -142 0
-139 -135 143 0
139 -143 0
135 -143 0
-140 -97 144 0
140 -144 0
97 -144 0
141 142 -145 0
-141 145 0
-142 145 0
143 145 -146 0
-143 146 0
-145 146 0
146 144 -136 0
-146 136 0
-144 136 0
98 147 0
-98 -147 0
99 148 0
-99 -148 0
-87 -147 150 0
87 -150 0
147 -150 0
-106 -98 151 0
106 -151 0
98 -151 0
-90 -147 152 0
90 -152 0
147 -152 0
-106 -98 153 0
106 -153 0
98 -153 0
-150 -148 154 0
150 -154 0
148 -154 0
-151 -99 155 0
151 -155 0
99 -155 0
-152 -148 156 0
152 -156 0
148 -156 0
-153 -99 157 0
153 -157 0
99 -157 0
154 155 -158 0
-154 158 0
-155 158 0
156 158 -159 0
-156 159 0
-158 159 0
159 157 -149 0
-159 149 0
-157 149 0
100 160 0
-100 -160 0
101 161 0
-101 -161 0
-87 -160 163 0
87 -163 0
160 -163 0
-105 -100 164 0
105 -164 0
100 -164 0
-90 -160 165 0
90 -165 0
160 -165 0
-105 -100 166 0
105 -166 0
100 -166 0
-163 -161 167 0
163 -167 0
161 -167 0
-164 -101 168 0
164 -168 0
101 -168 0
-165 -161 169 0
165 -169 0
161 -169 0
-166 -101 170 0
166 -170 0
101 -170 0
167 168 -171 0
-167 171 0
-168 171 0
169 171 -172 0
-169 172 0
-171 172 0
172 170 -162 0
-172 162 0
-170 162 0
c Force PIs of 2 ckts to be the same:
1 -87 0
-1 87 0
2 -88 0
-2 88 0
3 -89 0
-3 89 0
4 -90 0
-4 90 0
5 -91 0
-5 91 0
c XOR outputs of 2 ckts:
-16 -102 -173 0
16 102 -173 0
16 -102 173 0
-16 102 173 0
-17 -103 -174 0
17 103 -174 0
17 -103 174 0
-17 103 174 0
c The last OR gate of the miter:
173 174 -175 0
-173 175 0
-174 175 0
175 0
